483 5
10 10 10 10 10 

0 0 0 0 0 0 3 2 14 26 
0 0 0 0 0 0 3 3 4 6 
5 0 1 0 0 0 2 9 5 
7 0 4 0 0 0 4 12 11 7 30 
5 0 3 0 0 0 2 11 7 
5 0 3 0 0 0 2 9 8 
4 0 1 0 0 0 1 8 
2 0 4 0 0 0 1 10 
9 0 2 0 0 0 1 10 
9 0 3 0 0 0 1 13 
5 0 2 0 0 0 1 13 
9 0 2 0 0 0 1 13 
0 0 0 0 0 0 1 38 
0 0 0 0 0 0 3 15 18 24 
2 0 0 0 0 1 2 21 16 
3 0 0 0 0 1 3 20 17 395 
9 0 0 0 0 3 2 22 19 
7 0 0 0 0 6 2 22 19 
8 0 0 0 0 3 1 23 
4 0 0 0 0 4 1 22 
3 0 0 0 0 3 1 22 
3 0 0 0 0 1 1 25 
6 0 0 0 0 1 1 25 
4 0 0 0 0 2 1 25 
0 0 0 0 0 0 1 38 
0 0 0 0 0 0 3 27 32 33 
4 0 0 1 0 0 2 30 28 
10 0 0 3 0 0 2 35 29 
2 0 0 3 0 0 3 36 31 323 
6 0 0 3 0 0 2 35 34 
1 0 0 3 0 0 1 34 
4 0 0 3 0 0 1 34 
5 0 0 3 0 0 1 34 
10 0 0 4 0 0 1 37 
2 0 0 1 0 0 1 37 
5 0 0 1 0 0 1 37 
0 0 0 0 0 0 1 38 
0 0 0 0 0 0 5 39 81 93 135 177 
0 0 0 0 0 0 2 40 43 
2 1 1 0 1 1 1 41 
5 3 3 0 2 3 2 44 42 
7 1 2 0 3 2 3 52 49 45 
8 1 2 0 1 3 3 54 49 46 
8 4 5 0 4 3 4 64 54 51 47 
3 3 2 0 1 3 2 54 46 
6 2 1 0 4 3 2 51 47 
3 3 4 0 1 5 2 61 48 
5 4 3 0 2 1 1 50 
9 4 2 0 3 1 1 51 
10 3 3 0 4 4 3 65 60 53 
4 2 1 0 2 2 4 65 60 53 363 
2 3 3 0 2 2 3 65 60 53 
8 2 1 0 4 1 3 70 57 55 
10 3 2 0 1 2 6 79 74 70 67 65 58 
7 3 5 0 2 6 1 56 
9 1 2 0 2 2 4 79 74 67 58 
10 1 2 0 2 5 2 67 58 
9 3 3 0 1 2 2 78 59 
7 1 4 0 2 1 2 72 62 
7 3 2 0 2 3 2 79 63 
5 1 1 0 3 3 2 71 65 
6 1 2 0 4 2 1 63 
9 3 1 0 3 1 1 66 
5 1 3 0 5 4 1 65 
8 3 1 0 1 1 3 77 72 69 
8 3 1 0 2 1 2 76 68 
5 2 2 0 1 2 2 72 69 
10 2 5 0 2 2 2 77 71 
7 4 4 0 3 4 2 76 73 
9 1 4 0 2 3 1 71 
2 3 2 0 5 2 1 73 
2 3 3 0 3 2 1 73 
10 2 2 0 3 2 1 75 
1 1 2 0 2 2 1 76 
7 4 2 0 6 2 1 80 
5 4 3 0 1 3 1 80 
9 5 2 0 3 2 1 80 
4 2 4 0 2 4 1 80 
2 4 3 0 3 3 1 80 
0 0 0 0 0 0 1 483 
0 0 0 0 0 0 5 82 86 87 90 91 
2 1 0 0 0 0 1 83 
10 4 0 0 0 0 2 89 84 
6 1 0 0 0 0 1 85 
8 2 0 0 0 0 1 88 
6 2 0 0 0 0 2 89 416 
5 1 0 0 0 0 1 88 
6 4 0 0 0 0 1 92 
9 4 0 0 0 0 1 92 
5 3 0 0 0 0 1 92 
9 3 0 0 0 0 1 92 
0 0 0 0 0 0 5 219 231 263 295 327 
0 0 0 0 0 0 2 94 98 
9 1 1 1 1 0 1 95 
7 5 2 4 2 0 2 97 96 
3 2 1 2 1 0 4 113 105 103 99 
4 4 1 3 3 0 5 121 119 113 104 102 
5 1 3 4 2 0 2 103 101 
4 1 2 2 3 0 1 100 
4 1 5 2 3 0 2 104 101 
4 2 3 4 4 0 2 119 102 
3 3 4 1 3 0 3 123 115 106 
9 5 3 3 2 0 2 123 104 
2 3 2 2 4 0 3 115 110 107 
10 3 3 5 1 0 4 123 115 110 108 
6 1 2 2 1 0 2 110 107 
3 1 4 3 1 0 2 126 108 
8 2 2 1 1 0 1 109 
2 1 4 2 3 0 4 133 132 118 111 
10 6 1 2 3 0 2 118 111 
4 2 7 3 2 0 2 131 112 
1 4 1 3 1 0 2 125 114 
2 1 3 3 3 0 3 125 123 117 
7 5 1 3 4 0 1 116 
6 2 2 1 3 0 1 116 
2 1 2 2 5 0 1 117 
3 3 3 2 3 0 2 129 120 
9 4 1 5 3 0 2 125 122 
7 2 2 4 2 0 2 123 122 
2 3 2 3 2 0 2 130 124 
7 4 4 2 2 0 2 129 125 
9 2 3 3 3 0 2 129 128 
10 1 3 1 2 0 2 130 128 
8 1 2 4 6 0 1 127 
9 2 1 2 3 0 1 127 
5 1 2 2 4 0 1 127 
2 3 3 3 3 0 1 128 
6 3 2 1 2 0 1 134 
8 4 1 3 1 0 1 134 
1 2 3 1 4 0 1 134 
5 3 3 2 1 0 2 134 475 
7 2 4 1 2 0 1 134 
10 3 2 3 1 0 1 134 
0 0 0 0 0 0 1 483 
0 0 0 0 0 0 2 136 140 
4 1 0 1 1 1 1 137 
1 2 0 4 3 4 2 139 138 
3 6 0 1 3 3 3 146 144 141 
6 3 0 2 3 1 3 158 144 142 
5 1 0 7 2 2 2 144 142 
5 1 0 2 2 4 2 142 258 
9 2 0 2 1 1 3 149 148 143 
3 4 0 2 3 4 2 157 145 
9 1 0 3 2 4 2 157 148 
5 2 0 3 1 3 1 147 
5 2 0 5 2 2 1 147 
6 1 0 1 2 2 3 159 156 150 
3 2 0 3 1 2 3 159 156 150 
4 3 0 3 2 3 5 163 159 156 153 152 
3 1 0 1 2 3 3 163 153 151 
9 1 0 3 2 2 1 152 
6 4 0 1 2 4 3 175 164 154 
8 3 0 2 2 1 2 164 154 
2 1 0 1 1 2 3 170 166 155 
9 4 0 5 2 2 3 174 168 160 
10 4 0 2 4 2 3 175 174 160 
4 3 0 2 3 2 2 165 159 
2 2 0 1 1 2 2 165 159 
4 2 0 3 3 4 3 173 167 164 
6 4 0 2 2 4 1 161 
1 2 0 3 3 3 1 162 
5 2 0 5 3 1 2 172 165 
7 1 0 2 4 4 2 172 165 
6 2 0 3 1 1 2 168 166 
4 2 0 1 5 2 2 173 167 
4 3 0 4 4 5 2 172 169 
4 1 0 5 3 3 1 169 
4 1 0 1 4 2 1 169 
4 3 0 3 3 5 1 171 
7 2 0 1 4 1 1 172 
5 6 0 1 4 1 1 176 
4 3 0 3 2 2 1 176 
10 5 0 2 2 1 1 176 
7 2 0 3 2 3 1 176 
9 5 0 1 4 2 1 176 
0 0 0 0 0 0 1 483 
0 0 0 0 0 0 2 178 183 
2 1 1 0 1 1 2 217 179 
8 1 2 0 5 3 2 182 180 
10 4 2 0 1 3 4 206 190 187 181 
1 3 2 0 2 2 1 184 
8 6 5 0 3 3 4 206 205 188 186 
9 1 1 0 4 1 3 205 187 186 
5 1 1 0 2 3 2 188 185 
7 1 1 0 2 1 2 205 186 
4 3 3 0 2 4 3 208 202 189 
4 3 3 0 1 2 2 208 188 
7 1 2 0 2 1 4 216 202 194 191 
7 2 2 0 1 1 3 216 194 191 
3 2 2 0 4 5 3 208 202 192 
5 4 2 0 5 3 1 192 
2 4 1 0 2 3 2 213 193 
4 2 5 0 4 1 4 215 214 201 195 
8 1 1 0 2 3 4 213 212 201 196 
7 2 2 0 3 2 2 212 196 
7 4 1 0 1 2 2 204 197 
4 2 4 0 4 1 1 198 
6 2 3 0 2 4 2 211 199 
3 3 4 0 2 2 1 200 
5 2 2 0 2 2 2 210 203 
10 3 4 0 2 2 1 204 
4 4 5 0 2 4 1 203 
1 5 3 0 3 2 1 207 
7 2 3 0 3 1 1 207 
6 2 3 0 3 1 1 208 
9 1 2 0 1 1 1 208 
4 3 2 0 2 3 1 209 
3 3 3 0 4 4 1 210 
8 3 2 0 4 3 1 218 
9 3 1 0 2 3 1 218 
3 3 1 0 1 2 1 218 
7 2 5 0 3 4 1 218 
1 1 4 0 1 1 2 218 346 
4 4 2 0 3 3 1 218 
7 1 2 0 1 3 1 218 
7 3 4 0 3 5 1 218 
5 2 2 0 5 5 1 218 
0 0 0 0 0 0 1 483 
0 0 0 0 0 0 4 220 222 228 229 
1 0 0 1 0 0 2 225 221 
10 0 0 2 0 0 2 227 223 
8 0 0 3 0 0 2 227 224 
8 0 0 3 0 0 1 224 
3 0 0 3 0 0 1 226 
6 0 0 2 0 0 1 227 
6 0 0 4 0 0 2 230 383 
2 0 0 2 0 0 1 230 
2 0 0 3 0 0 1 230 
9 0 0 2 0 0 1 230 
0 0 0 0 0 0 5 359 371 393 415 437 
0 0 0 0 0 0 3 232 233 245 
7 1 1 0 1 0 2 251 234 
3 3 2 0 4 0 2 251 234 
6 3 3 0 5 0 2 238 235 
10 2 2 0 4 0 2 241 236 
5 1 1 0 1 0 2 252 237 
7 2 4 0 4 0 2 248 239 
6 2 3 0 1 0 2 241 240 
4 3 4 0 2 0 1 240 
3 1 2 0 2 0 3 256 247 242 
1 1 2 0 1 0 3 256 253 243 
8 3 3 0 4 0 2 253 243 
6 4 2 0 1 0 1 244 
7 3 2 0 3 0 1 246 
10 3 4 0 3 0 1 246 
3 2 3 0 3 0 3 260 249 463 
3 5 2 0 3 0 2 260 249 
9 3 1 0 1 0 2 260 249 
1 4 3 0 3 0 3 261 255 250 
9 2 2 0 3 0 3 259 258 254 
4 3 3 0 2 0 3 259 258 254 
5 2 4 0 2 0 2 258 257 
8 2 2 0 4 0 1 254 
9 2 2 0 1 0 1 257 
2 3 4 0 2 0 1 258 
6 3 2 0 3 0 1 260 
8 3 3 0 3 0 1 262 
6 1 3 0 2 0 1 262 
2 4 2 0 4 0 1 262 
3 1 2 0 1 0 1 262 
4 3 2 0 2 0 1 262 
0 0 0 0 0 0 1 483 
0 0 0 0 0 0 3 264 278 293 
8 1 1 1 0 0 2 292 265 
6 5 2 4 0 0 2 290 266 
4 1 3 3 0 0 1 267 
1 2 1 3 0 0 3 289 288 268 
3 2 2 4 0 0 2 287 269 
8 2 4 3 0 0 3 286 285 270 
8 3 3 2 0 0 1 271 
4 1 1 2 0 0 2 284 272 
9 4 2 3 0 0 1 273 
10 3 3 3 0 0 1 274 
1 2 2 2 0 0 4 283 282 281 275 
1 2 5 2 0 0 2 280 276 
1 4 2 2 0 0 1 277 
2 4 2 1 0 0 1 279 
5 3 4 2 0 0 1 291 
3 2 3 5 0 0 1 294 
1 2 5 1 0 0 1 294 
2 2 1 3 0 0 1 294 
2 3 2 2 0 0 1 294 
5 3 2 1 0 0 1 294 
6 3 1 2 0 0 1 294 
9 2 3 5 0 0 1 294 
9 4 2 1 0 0 1 294 
6 2 3 1 0 0 1 294 
8 2 3 1 0 0 1 294 
8 3 3 4 0 0 2 294 346 
2 2 1 3 0 0 1 294 
10 2 2 4 0 0 1 294 
2 3 5 2 0 0 1 294 
3 1 2 3 0 0 1 294 
0 0 0 0 0 0 1 483 
0 0 0 0 0 0 3 296 297 325 
1 0 0 1 1 1 2 324 298 
3 0 0 3 1 1 3 324 323 299 
2 0 0 4 2 3 2 312 299 
7 0 0 2 2 2 1 300 
3 0 0 7 3 1 3 322 321 301 
3 0 0 2 1 4 1 302 
2 0 0 2 2 2 3 320 319 303 
7 0 0 3 3 2 3 318 304 467 
4 0 0 1 2 1 1 305 
6 0 0 3 2 3 1 306 
2 0 0 5 1 3 2 317 307 
10 0 0 2 4 2 1 308 
1 0 0 4 2 4 4 316 315 311 309 
5 0 0 5 1 1 2 313 310 
6 0 0 1 1 2 1 314 
3 0 0 2 7 1 1 313 
3 0 0 2 2 6 1 323 
3 0 0 3 3 2 1 326 
2 0 0 3 2 3 1 326 
3 0 0 1 2 3 1 326 
8 0 0 3 6 4 1 326 
6 0 0 1 3 2 1 326 
2 0 0 1 3 2 1 326 
2 0 0 4 1 1 1 326 
8 0 0 1 3 3 1 326 
4 0 0 1 3 2 1 326 
8 0 0 2 3 4 1 326 
9 0 0 2 4 3 1 326 
9 0 0 2 2 3 1 326 
9 0 0 2 3 4 1 326 
0 0 0 0 0 0 1 483 
0 0 0 0 0 0 3 328 329 334 
10 1 1 1 0 0 2 339 330 
3 3 2 3 0 0 3 339 330 419 
5 3 2 2 0 0 2 335 331 
6 6 1 3 0 0 2 336 332 
3 1 2 2 0 0 1 333 
2 2 2 1 0 0 3 343 340 337 
10 4 3 3 0 0 2 339 336 
9 3 2 3 0 0 1 336 
2 1 2 3 0 0 2 343 338 
8 3 3 3 0 0 1 338 
9 2 2 2 0 0 3 348 345 341 
10 5 3 2 0 0 2 343 341 
4 2 4 2 0 0 2 348 342 
7 2 2 3 0 0 1 342 
1 3 2 1 0 0 2 350 344 
9 1 1 3 0 0 2 348 344 
7 1 2 3 0 0 1 346 
2 1 2 1 0 0 1 346 
8 4 6 5 0 0 1 347 
2 3 3 1 0 0 3 357 352 349 
5 2 3 2 0 0 3 357 352 349 
7 3 2 3 0 0 4 356 355 353 351 
3 1 2 5 0 0 2 353 351 
8 2 6 1 0 0 1 354 
3 4 2 1 0 0 1 353 
4 1 3 3 0 0 1 358 
2 2 2 3 0 0 1 358 
9 3 3 2 0 0 1 358 
6 3 4 4 0 0 1 358 
6 3 1 4 0 0 1 358 
0 0 0 0 0 0 1 483 
0 0 0 0 0 0 5 360 362 364 365 367 
1 0 0 1 0 0 2 369 361 
5 0 0 4 0 0 1 363 
9 0 0 3 0 0 2 369 368 
7 0 0 1 0 0 1 366 
8 0 0 3 0 0 1 366 
8 0 0 3 0 0 1 366 
8 0 0 2 0 0 2 368 453 
3 0 0 2 0 0 1 368 
4 0 0 2 0 0 1 370 
7 0 0 4 0 0 1 370 
0 0 0 0 0 0 2 459 471 
0 0 0 0 0 0 1 372 
7 0 1 1 0 0 2 391 373 
2 0 3 2 0 0 2 390 374 
2 0 4 3 0 0 3 389 388 375 
1 0 3 3 0 0 3 387 386 376 
6 0 1 3 0 0 3 385 384 377 
7 0 3 2 0 0 2 383 378 
7 0 2 3 0 0 3 382 379 451 
5 0 3 1 0 0 1 380 
8 0 3 1 0 0 1 381 
10 0 1 3 0 0 1 392 
2 0 8 4 0 0 1 392 
5 0 1 7 0 0 1 392 
1 0 1 4 0 0 1 392 
3 0 3 3 0 0 1 392 
3 0 2 2 0 0 1 392 
6 0 4 1 0 0 1 392 
10 0 4 2 0 0 1 392 
6 0 1 3 0 0 1 392 
2 0 1 1 0 0 1 392 
6 0 1 1 0 0 1 392 
0 0 0 0 0 0 1 483 
0 0 0 0 0 0 7 394 397 409 410 411 412 413 
3 0 0 1 1 0 3 408 407 395 
9 0 0 1 4 0 2 406 396 
1 0 0 2 1 0 2 405 398 
6 0 0 3 4 0 1 398 
1 0 0 3 2 0 1 399 
8 0 0 2 2 0 1 400 
3 0 0 3 4 0 1 401 
1 0 0 2 1 0 1 402 
6 0 0 1 2 0 1 403 
10 0 0 3 4 0 1 404 
6 0 0 3 1 0 2 414 469 
9 0 0 5 2 0 1 414 
10 0 0 3 2 0 1 414 
6 0 0 2 4 0 1 414 
10 0 0 4 5 0 1 414 
10 0 0 2 2 0 1 414 
6 0 0 3 1 0 1 414 
1 0 0 2 3 0 1 414 
1 0 0 2 2 0 1 414 
3 0 0 3 3 0 1 414 
0 0 0 0 0 0 1 483 
0 0 0 0 0 0 1 416 
1 0 1 0 1 0 2 421 417 
1 0 4 0 5 0 1 418 
7 0 1 0 1 0 3 434 426 419 
8 0 2 0 3 0 3 435 433 420 
7 0 3 0 4 0 2 431 422 
3 0 3 0 4 0 6 434 433 431 429 428 424 
9 0 2 0 3 0 4 432 430 423 462 
10 0 3 0 2 0 3 429 428 424 
7 0 3 0 3 0 1 425 
5 0 7 0 5 0 1 427 
2 0 2 0 1 0 1 430 
8 0 4 0 1 0 1 436 
7 0 2 0 1 0 1 436 
4 0 1 0 3 0 1 436 
7 0 1 0 2 0 1 436 
3 0 2 0 2 0 1 436 
2 0 2 0 2 0 1 436 
7 0 3 0 2 0 1 436 
7 0 1 0 3 0 1 436 
5 0 3 0 2 0 1 436 
0 0 0 0 0 0 1 483 
0 0 0 0 0 0 2 438 457 
9 0 0 1 0 1 2 456 439 
2 0 0 3 0 4 3 455 454 440 
2 0 0 1 0 1 2 453 441 
10 0 0 2 0 3 3 452 451 442 
6 0 0 2 0 1 1 443 
9 0 0 2 0 3 1 444 
2 0 0 3 0 2 4 450 449 448 445 
9 0 0 2 0 3 1 446 
10 0 0 2 0 1 1 447 
6 0 0 3 0 3 1 458 
5 0 0 3 0 2 1 458 
7 0 0 1 0 3 1 458 
7 0 0 4 0 3 1 458 
9 0 0 1 0 2 2 458 475 
2 0 0 3 0 2 1 458 
1 0 0 5 0 5 1 458 
3 0 0 3 0 2 1 458 
8 0 0 1 0 3 1 458 
8 0 0 4 0 2 1 458 
3 0 0 4 0 4 1 458 
0 0 0 0 0 0 1 483 
0 0 0 0 0 0 2 460 461 
10 0 0 0 0 1 2 463 462 
8 0 0 0 0 1 2 464 463 
4 0 0 0 0 2 3 469 468 464 
4 0 0 0 0 4 4 469 468 467 466 
10 0 0 0 0 3 2 467 465 
3 0 0 0 0 3 2 466 476 
8 0 0 0 0 2 1 470 
10 0 0 0 0 3 1 470 
5 0 0 0 0 3 1 470 
5 0 0 0 0 3 1 470 
0 0 0 0 0 0 1 483 
0 0 0 0 0 0 2 472 475 
6 0 0 1 0 0 3 481 474 473 
2 0 0 3 0 0 2 480 477 
2 0 0 2 0 0 2 478 476 
1 0 0 2 0 0 2 478 476 
10 0 0 3 0 0 2 480 479 
2 0 0 3 0 0 1 478 
5 0 0 2 0 0 1 479 
1 0 0 1 0 0 1 482 
5 0 0 3 0 0 1 482 
8 0 0 5 0 0 1 482 
0 0 0 0 0 0 1 483 
0 0 0 0 0 0 0 
